certificates/rado_a13_c217_N37.drat
18 -36 15 0
-36 15 0
d 18 -36 15 0
35 -14 0
-37 0
15 0
-35 36 0
36 0
-14 0
2 0
-24 0
35 0
-18 0
-13 0
1 0
20 0
17 0
31 0
7 0
30 0
-23 0
-19 0
-21 0
0
